NAME: inst10.atsp
TYPE: ATSP
DIMENSION: 10
EDGE_WEIGHT_TYPE: EXPLICIT
EDGE_WEIGHT_FORMAT: FULL_MATRIX
EDGE_WEIGHT_SECTION:
0 36 67 56 9 34 92 54 25 50
57 0 20 38 16 75 78 17 19 11
29 54 0 27 44 44 27 21 64 38
30 43 42 0 7 21 100 42 70 45
64 74 1 4 0 22 51 59 99 54
45 21 82 84 94 0 80 62 35 58
85 82 45 95 15 49 0 58 68 52
75 58 92 21 44 29 38 0 12 73
96 11 88 23 3 24 30 92 0 12
12 12 67 93 23 99 50 30 90 0
EOF